Route #1: 726 213 606 394 377 212 758 788 
Route #2: 854 667 673 703 449 625 51 516 610 
Route #3: 927 68 819 281 800 634 82 173 61 
Route #4: 247 53 330 948 103 415 500 632 106 
Route #5: 14 650 114 505 658 87 767 101 845 
Route #6: 706 802 695 372 202 621 537 320 541 
Route #7: 110 486 487 911 141 559 257 743 970 877 
Route #8: 74 712 928 967 986 713 407 278 
Route #9: 697 704 459 751 527 
Route #10: 775 299 873 893 607 630 182 384 253 
Route #11: 753 844 721 455 461 898 687 478 866 
Route #12: 117 489 411 770 547 586 664 264 532 
Cost: 254336
